c colouring generated by benchmark framework
p edge 1284 6395
v 1 3
v 2 4
v 3 0
v 4 4
v 5 0
v 6 5
v 7 1
v 8 2
v 9 0
v 10 0
v 11 4
v 12 2
v 13 2
v 14 1
v 15 2
v 16 1
v 17 3
v 18 0
v 19 3
v 20 4
v 21 3
v 22 0
v 23 2
v 24 3
v 25 3
v 26 1
v 27 1
v 28 1
v 29 1
v 30 1
v 31 4
v 32 2
v 33 4
v 34 3
v 35 0
v 36 0
v 37 0
v 38 1
v 39 4
v 40 4
v 41 2
v 42 2
v 43 3
v 44 3
v 45 4
v 46 3
v 47 4
v 48 4
v 49 3
v 50 1
v 51 2
v 52 1
v 53 0
v 54 2
v 55 3
v 56 1
v 57 3
v 58 3
v 59 2
v 60 0
v 61 0
v 62 2
v 63 2
v 64 1
v 65 2
v 66 0
v 67 4
v 68 3
v 69 0
v 70 1
v 71 4
v 72 3
v 73 4
v 74 2
v 75 3
v 76 0
v 77 1
v 78 0
v 79 2
v 80 3
v 81 0
v 82 3
v 83 4
v 84 2
v 85 3
v 86 1
v 87 1
v 88 4
v 89 1
v 90 2
v 91 0
v 92 0
v 93 4
v 94 4
v 95 3
v 96 2
v 97 4
v 98 1
v 99 4
v 100 1
v 101 1
v 102 3
v 103 0
v 104 2
v 105 2
v 106 2
v 107 2
v 108 3
v 109 2
v 110 2
v 111 0
v 112 4
v 113 0
v 114 3
v 115 4
v 116 1
v 117 1
v 118 2
v 119 3
v 120 1
v 121 2
v 122 2
v 123 0
v 124 2
v 125 2
v 126 1
v 127 2
v 128 3
v 129 1
v 130 2
v 131 0
v 132 1
v 133 1
v 134 0
v 135 0
v 136 0
v 137 3
v 138 0
v 139 4
v 140 4
v 141 0
v 142 0
v 143 2
v 144 2
v 145 1
v 146 2
v 147 4
v 148 3
v 149 1
v 150 1
v 151 2
v 152 1
v 153 3
v 154 1
v 155 4
v 156 3
v 157 1
v 158 0
v 159 0
v 160 0
v 161 0
v 162 0
v 163 0
v 164 2
v 165 1
v 166 4
v 167 2
v 168 0
v 169 1
v 170 3
v 171 4
v 172 1
v 173 0
v 174 1
v 175 0
v 176 4
v 177 2
v 178 3
v 179 3
v 180 0
v 181 2
v 182 3
v 183 0
v 184 1
v 185 0
v 186 4
v 187 0
v 188 4
v 189 3
v 190 0
v 191 1
v 192 0
v 193 2
v 194 0
v 195 0
v 196 1
v 197 4
v 198 3
v 199 1
v 200 1
v 201 2
v 202 0
v 203 2
v 204 4
v 205 1
v 206 0
v 207 1
v 208 0
v 209 0
v 210 1
v 211 1
v 212 1
v 213 3
v 214 4
v 215 2
v 216 1
v 217 3
v 218 3
v 219 1
v 220 2
v 221 2
v 222 1
v 223 2
v 224 3
v 225 0
v 226 3
v 227 2
v 228 1
v 229 1
v 230 0
v 231 1
v 232 2
v 233 1
v 234 1
v 235 0
v 236 1
v 237 2
v 238 0
v 239 1
v 240 0
v 241 2
v 242 2
v 243 0
v 244 1
v 245 2
v 246 3
v 247 0
v 248 3
v 249 0
v 250 4
v 251 1
v 252 1
v 253 3
v 254 2
v 255 1
v 256 2
v 257 3
v 258 1
v 259 0
v 260 0
v 261 1
v 262 1
v 263 4
v 264 1
v 265 2
v 266 2
v 267 2
v 268 4
v 269 0
v 270 4
v 271 0
v 272 3
v 273 1
v 274 0
v 275 0
v 276 3
v 277 2
v 278 1
v 279 0
v 280 0
v 281 4
v 282 0
v 283 2
v 284 1
v 285 1
v 286 1
v 287 0
v 288 0
v 289 0
v 290 0
v 291 0
v 292 2
v 293 3
v 294 2
v 295 4
v 296 1
v 297 0
v 298 0
v 299 0
v 300 1
v 301 1
v 302 2
v 303 1
v 304 4
v 305 2
v 306 2
v 307 1
v 308 1
v 309 1
v 310 0
v 311 2
v 312 0
v 313 1
v 314 4
v 315 0
v 316 2
v 317 1
v 318 1
v 319 4
v 320 3
v 321 3
v 322 1
v 323 1
v 324 3
v 325 1
v 326 1
v 327 1
v 328 2
v 329 1
v 330 3
v 331 1
v 332 4
v 333 0
v 334 3
v 335 3
v 336 2
v 337 1
v 338 2
v 339 4
v 340 3
v 341 2
v 342 2
v 343 1
v 344 1
v 345 0
v 346 1
v 347 1
v 348 3
v 349 1
v 350 2
v 351 2
v 352 2
v 353 3
v 354 4
v 355 0
v 356 0
v 357 1
v 358 2
v 359 3
v 360 2
v 361 3
v 362 0
v 363 0
v 364 3
v 365 2
v 366 4
v 367 3
v 368 0
v 369 2
v 370 2
v 371 3
v 372 4
v 373 1
v 374 2
v 375 1
v 376 3
v 377 2
v 378 1
v 379 1
v 380 1
v 381 4
v 382 2
v 383 0
v 384 0
v 385 1
v 386 0
v 387 1
v 388 3
v 389 1
v 390 3
v 391 3
v 392 2
v 393 1
v 394 3
v 395 4
v 396 4
v 397 3
v 398 1
v 399 3
v 400 2
v 401 4
v 402 2
v 403 3
v 404 3
v 405 2
v 406 3
v 407 0
v 408 0
v 409 0
v 410 1
v 411 1
v 412 0
v 413 1
v 414 0
v 415 4
v 416 0
v 417 1
v 418 4
v 419 2
v 420 3
v 421 0
v 422 0
v 423 1
v 424 0
v 425 4
v 426 0
v 427 4
v 428 2
v 429 1
v 430 2
v 431 2
v 432 1
v 433 1
v 434 2
v 435 3
v 436 2
v 437 3
v 438 0
v 439 1
v 440 2
v 441 1
v 442 0
v 443 1
v 444 1
v 445 0
v 446 4
v 447 0
v 448 0
v 449 4
v 450 1
v 451 4
v 452 1
v 453 0
v 454 2
v 455 4
v 456 2
v 457 1
v 458 1
v 459 4
v 460 1
v 461 2
v 462 0
v 463 2
v 464 1
v 465 4
v 466 3
v 467 0
v 468 2
v 469 1
v 470 3
v 471 0
v 472 2
v 473 1
v 474 2
v 475 2
v 476 2
v 477 0
v 478 0
v 479 4
v 480 1
v 481 0
v 482 2
v 483 3
v 484 1
v 485 4
v 486 3
v 487 1
v 488 1
v 489 1
v 490 0
v 491 2
v 492 3
v 493 1
v 494 2
v 495 2
v 496 1
v 497 4
v 498 1
v 499 3
v 500 2
v 501 4
v 502 3
v 503 4
v 504 0
v 505 1
v 506 3
v 507 2
v 508 1
v 509 2
v 510 0
v 511 4
v 512 4
v 513 4
v 514 2
v 515 1
v 516 1
v 517 0
v 518 0
v 519 0
v 520 1
v 521 1
v 522 2
v 523 0
v 524 0
v 525 0
v 526 1
v 527 4
v 528 3
v 529 0
v 530 4
v 531 0
v 532 1
v 533 0
v 534 4
v 535 0
v 536 2
v 537 3
v 538 1
v 539 4
v 540 1
v 541 4
v 542 3
v 543 2
v 544 1
v 545 2
v 546 0
v 547 2
v 548 1
v 549 1
v 550 3
v 551 3
v 552 2
v 553 0
v 554 1
v 555 2
v 556 3
v 557 1
v 558 1
v 559 0
v 560 0
v 561 2
v 562 2
v 563 0
v 564 2
v 565 3
v 566 1
v 567 0
v 568 3
v 569 3
v 570 0
v 571 0
v 572 2
v 573 0
v 574 1
v 575 0
v 576 0
v 577 1
v 578 2
v 579 0
v 580 2
v 581 3
v 582 1
v 583 2
v 584 3
v 585 1
v 586 3
v 587 0
v 588 0
v 589 3
v 590 4
v 591 2
v 592 0
v 593 2
v 594 2
v 595 3
v 596 3
v 597 0
v 598 2
v 599 4
v 600 4
v 601 3
v 602 3
v 603 0
v 604 4
v 605 3
v 606 4
v 607 4
v 608 2
v 609 3
v 610 4
v 611 4
v 612 2
v 613 2
v 614 3
v 615 2
v 616 1
v 617 1
v 618 0
v 619 2
v 620 1
v 621 2
v 622 3
v 623 0
v 624 4
v 625 3
v 626 4
v 627 3
v 628 0
v 629 0
v 630 2
v 631 2
v 632 1
v 633 4
v 634 3
v 635 3
v 636 2
v 637 4
v 638 4
v 639 2
v 640 1
v 641 0
v 642 3
v 643 1
v 644 1
v 645 1
v 646 0
v 647 2
v 648 2
v 649 1
v 650 3
v 651 1
v 652 2
v 653 2
v 654 0
v 655 0
v 656 0
v 657 0
v 658 3
v 659 0
v 660 0
v 661 4
v 662 2
v 663 2
v 664 3
v 665 4
v 666 4
v 667 3
v 668 3
v 669 2
v 670 2
v 671 2
v 672 0
v 673 0
v 674 2
v 675 0
v 676 1
v 677 1
v 678 3
v 679 3
v 680 2
v 681 1
v 682 2
v 683 0
v 684 3
v 685 1
v 686 0
v 687 1
v 688 2
v 689 0
v 690 1
v 691 0
v 692 1
v 693 3
v 694 1
v 695 1
v 696 2
v 697 2
v 698 3
v 699 4
v 700 1
v 701 0
v 702 3
v 703 4
v 704 1
v 705 4
v 706 2
v 707 1
v 708 3
v 709 4
v 710 1
v 711 0
v 712 2
v 713 3
v 714 2
v 715 2
v 716 3
v 717 0
v 718 1
v 719 3
v 720 2
v 721 1
v 722 2
v 723 0
v 724 3
v 725 3
v 726 3
v 727 2
v 728 4
v 729 0
v 730 0
v 731 1
v 732 0
v 733 0
v 734 2
v 735 0
v 736 0
v 737 2
v 738 0
v 739 0
v 740 0
v 741 3
v 742 0
v 743 1
v 744 1
v 745 1
v 746 1
v 747 0
v 748 3
v 749 1
v 750 2
v 751 1
v 752 1
v 753 1
v 754 2
v 755 2
v 756 0
v 757 3
v 758 2
v 759 0
v 760 3
v 761 0
v 762 1
v 763 3
v 764 3
v 765 0
v 766 2
v 767 1
v 768 3
v 769 1
v 770 4
v 771 1
v 772 1
v 773 0
v 774 3
v 775 2
v 776 3
v 777 3
v 778 0
v 779 2
v 780 2
v 781 0
v 782 1
v 783 3
v 784 1
v 785 3
v 786 1
v 787 0
v 788 2
v 789 1
v 790 0
v 791 3
v 792 3
v 793 2
v 794 0
v 795 0
v 796 2
v 797 2
v 798 1
v 799 0
v 800 0
v 801 3
v 802 2
v 803 0
v 804 1
v 805 1
v 806 3
v 807 3
v 808 0
v 809 1
v 810 2
v 811 0
v 812 1
v 813 1
v 814 1
v 815 2
v 816 3
v 817 3
v 818 2
v 819 4
v 820 1
v 821 2
v 822 2
v 823 1
v 824 1
v 825 1
v 826 0
v 827 1
v 828 2
v 829 1
v 830 2
v 831 2
v 832 0
v 833 4
v 834 2
v 835 3
v 836 0
v 837 4
v 838 2
v 839 3
v 840 2
v 841 2
v 842 2
v 843 0
v 844 3
v 845 0
v 846 0
v 847 3
v 848 4
v 849 2
v 850 4
v 851 4
v 852 3
v 853 1
v 854 0
v 855 0
v 856 0
v 857 2
v 858 3
v 859 3
v 860 1
v 861 1
v 862 3
v 863 3
v 864 1
v 865 3
v 866 0
v 867 4
v 868 0
v 869 0
v 870 3
v 871 3
v 872 3
v 873 3
v 874 1
v 875 2
v 876 0
v 877 2
v 878 2
v 879 2
v 880 0
v 881 1
v 882 2
v 883 4
v 884 3
v 885 1
v 886 0
v 887 0
v 888 3
v 889 0
v 890 2
v 891 2
v 892 1
v 893 0
v 894 2
v 895 0
v 896 0
v 897 1
v 898 2
v 899 2
v 900 3
v 901 0
v 902 0
v 903 3
v 904 1
v 905 0
v 906 4
v 907 0
v 908 3
v 909 4
v 910 2
v 911 2
v 912 1
v 913 4
v 914 0
v 915 2
v 916 2
v 917 2
v 918 0
v 919 0
v 920 4
v 921 0
v 922 1
v 923 4
v 924 1
v 925 4
v 926 3
v 927 4
v 928 3
v 929 2
v 930 3
v 931 4
v 932 0
v 933 4
v 934 1
v 935 3
v 936 3
v 937 2
v 938 0
v 939 4
v 940 1
v 941 2
v 942 3
v 943 0
v 944 2
v 945 3
v 946 0
v 947 3
v 948 2
v 949 2
v 950 1
v 951 4
v 952 3
v 953 1
v 954 4
v 955 1
v 956 2
v 957 1
v 958 3
v 959 1
v 960 1
v 961 3
v 962 2
v 963 3
v 964 2
v 965 0
v 966 4
v 967 4
v 968 2
v 969 4
v 970 1
v 971 4
v 972 2
v 973 2
v 974 4
v 975 2
v 976 1
v 977 3
v 978 2
v 979 1
v 980 2
v 981 0
v 982 2
v 983 0
v 984 3
v 985 3
v 986 3
v 987 1
v 988 2
v 989 2
v 990 0
v 991 0
v 992 0
v 993 3
v 994 2
v 995 3
v 996 4
v 997 1
v 998 1
v 999 1
v 1000 1
v 1001 2
v 1002 0
v 1003 1
v 1004 2
v 1005 1
v 1006 2
v 1007 3
v 1008 2
v 1009 2
v 1010 1
v 1011 1
v 1012 2
v 1013 0
v 1014 1
v 1015 0
v 1016 4
v 1017 0
v 1018 1
v 1019 3
v 1020 3
v 1021 0
v 1022 1
v 1023 2
v 1024 2
v 1025 0
v 1026 4
v 1027 0
v 1028 0
v 1029 0
v 1030 0
v 1031 2
v 1032 1
v 1033 1
v 1034 3
v 1035 0
v 1036 1
v 1037 3
v 1038 1
v 1039 4
v 1040 3
v 1041 2
v 1042 4
v 1043 2
v 1044 1
v 1045 1
v 1046 0
v 1047 1
v 1048 2
v 1049 0
v 1050 2
v 1051 2
v 1052 0
v 1053 3
v 1054 4
v 1055 0
v 1056 0
v 1057 4
v 1058 3
v 1059 3
v 1060 1
v 1061 1
v 1062 4
v 1063 3
v 1064 1
v 1065 1
v 1066 2
v 1067 3
v 1068 2
v 1069 1
v 1070 1
v 1071 4
v 1072 3
v 1073 1
v 1074 1
v 1075 1
v 1076 0
v 1077 2
v 1078 4
v 1079 1
v 1080 0
v 1081 1
v 1082 3
v 1083 1
v 1084 2
v 1085 1
v 1086 1
v 1087 0
v 1088 3
v 1089 1
v 1090 3
v 1091 1
v 1092 0
v 1093 0
v 1094 4
v 1095 4
v 1096 4
v 1097 3
v 1098 1
v 1099 2
v 1100 1
v 1101 1
v 1102 0
v 1103 0
v 1104 1
v 1105 4
v 1106 0
v 1107 0
v 1108 2
v 1109 3
v 1110 0
v 1111 0
v 1112 2
v 1113 1
v 1114 2
v 1115 2
v 1116 1
v 1117 0
v 1118 0
v 1119 0
v 1120 0
v 1121 3
v 1122 0
v 1123 4
v 1124 2
v 1125 0
v 1126 3
v 1127 0
v 1128 2
v 1129 1
v 1130 3
v 1131 1
v 1132 0
v 1133 1
v 1134 2
v 1135 1
v 1136 1
v 1137 0
v 1138 2
v 1139 3
v 1140 3
v 1141 2
v 1142 1
v 1143 0
v 1144 1
v 1145 2
v 1146 3
v 1147 2
v 1148 1
v 1149 2
v 1150 0
v 1151 0
v 1152 1
v 1153 1
v 1154 2
v 1155 2
v 1156 2
v 1157 0
v 1158 2
v 1159 4
v 1160 0
v 1161 2
v 1162 0
v 1163 4
v 1164 1
v 1165 2
v 1166 2
v 1167 1
v 1168 4
v 1169 3
v 1170 2
v 1171 1
v 1172 1
v 1173 4
v 1174 1
v 1175 4
v 1176 0
v 1177 2
v 1178 2
v 1179 4
v 1180 0
v 1181 1
v 1182 3
v 1183 1
v 1184 2
v 1185 1
v 1186 1
v 1187 2
v 1188 2
v 1189 0
v 1190 1
v 1191 3
v 1192 0
v 1193 0
v 1194 2
v 1195 1
v 1196 0
v 1197 4
v 1198 2
v 1199 0
v 1200 1
v 1201 1
v 1202 1
v 1203 1
v 1204 2
v 1205 2
v 1206 2
v 1207 3
v 1208 1
v 1209 4
v 1210 1
v 1211 0
v 1212 1
v 1213 3
v 1214 0
v 1215 0
v 1216 1
v 1217 0
v 1218 1
v 1219 0
v 1220 2
v 1221 0
v 1222 2
v 1223 4
v 1224 3
v 1225 0
v 1226 3
v 1227 1
v 1228 4
v 1229 3
v 1230 3
v 1231 3
v 1232 0
v 1233 3
v 1234 2
v 1235 1
v 1236 3
v 1237 0
v 1238 0
v 1239 3
v 1240 1
v 1241 0
v 1242 0
v 1243 0
v 1244 1
v 1245 1
v 1246 0
v 1247 0
v 1248 1
v 1249 2
v 1250 1
v 1251 3
v 1252 1
v 1253 3
v 1254 3
v 1255 2
v 1256 0
v 1257 1
v 1258 3
v 1259 1
v 1260 4
v 1261 2
v 1262 1
v 1263 3
v 1264 4
v 1265 0
v 1266 1
v 1267 2
v 1268 1
v 1269 2
v 1270 1
v 1271 0
v 1272 0
v 1273 2
v 1274 3
v 1275 0
v 1276 1
v 1277 0
v 1278 1
v 1279 0
v 1280 0
v 1281 3
v 1282 3
v 1283 4
v 1284 2
